p tw 363 2992
1 2
1 3
1 4
1 45
1 46
1 47
1 48
1 89
1 90
1 91
1 122
1 133
1 144
1 145
1 166
1 177
1 188
1 189
1 210
2 3
2 4
2 45
2 46
2 47
2 48
2 89
2 90
2 91
2 122
2 133
2 144
2 145
2 221
2 232
2 233
2 254
2 265
2 266
3 4
3 45
3 46
3 47
3 48
3 89
3 90
3 91
3 122
3 166
3 177
3 221
3 232
3 233
3 287
3 288
3 309
4 45
4 46
4 47
4 48
4 89
4 90
4 91
4 133
4 166
4 188
4 189
4 221
4 254
4 287
4 288
4 320
4 321
5 6
5 7
5 8
5 49
5 50
5 51
5 52
5 92
5 93
5 94
5 123
5 134
5 146
5 147
5 167
5 178
5 190
5 191
5 211
6 7
6 8
6 49
6 50
6 51
6 52
6 92
6 93
6 94
6 123
6 134
6 146
6 147
6 222
6 234
6 235
6 255
6 267
6 268
7 8
7 49
7 50
7 51
7 52
7 92
7 93
7 94
7 123
7 167
7 178
7 222
7 234
7 235
7 289
7 290
7 310
8 49
8 50
8 51
8 52
8 92
8 93
8 94
8 134
8 167
8 190
8 191
8 222
8 255
8 289
8 290
8 322
8 323
9 10
9 11
9 12
9 53
9 54
9 55
9 56
9 95
9 96
9 97
9 124
9 135
9 148
9 149
9 168
9 179
9 192
9 193
9 212
10 11
10 12
10 53
10 54
10 55
10 56
10 95
10 96
10 97
10 124
10 135
10 148
10 149
10 223
10 236
10 237
10 256
10 269
10 270
11 12
11 53
11 54
11 55
11 56
11 95
11 96
11 97
11 124
11 168
11 179
11 223
11 236
11 237
11 291
11 292
11 311
12 53
12 54
12 55
12 56
12 95
12 96
12 97
12 135
12 168
12 192
12 193
12 223
12 256
12 291
12 292
12 324
12 325
13 14
13 15
13 16
13 57
13 58
13 59
13 60
13 98
13 99
13 100
13 125
13 136
13 150
13 151
13 169
13 180
13 194
13 195
13 213
14 15
14 16
14 57
14 58
14 59
14 60
14 98
14 99
14 100
14 125
14 136
14 150
14 151
14 224
14 238
14 239
14 257
14 271
14 272
15 16
15 57
15 58
15 59
15 60
15 98
15 99
15 100
15 125
15 169
15 180
15 224
15 238
15 239
15 293
15 294
15 312
16 57
16 58
16 59
16 60
16 98
16 99
16 100
16 136
16 169
16 194
16 195
16 224
16 257
16 293
16 294
16 326
16 327
17 18
17 19
17 20
17 61
17 62
17 63
17 64
17 101
17 102
17 103
17 126
17 137
17 152
17 153
17 170
17 181
17 196
17 197
17 214
18 19
18 20
18 61
18 62
18 63
18 64
18 101
18 102
18 103
18 126
18 137
18 152
18 153
18 225
18 240
18 241
18 258
18 273
18 274
19 20
19 61
19 62
19 63
19 64
19 101
19 102
19 103
19 126
19 170
19 181
19 225
19 240
19 241
19 295
19 296
19 313
20 61
20 62
20 63
20 64
20 101
20 102
20 103
20 137
20 170
20 196
20 197
20 225
20 258
20 295
20 296
20 328
20 329
21 22
21 23
21 24
21 65
21 66
21 67
21 68
21 104
21 105
21 106
21 127
21 138
21 154
21 155
21 171
21 182
21 198
21 199
21 215
22 23
22 24
22 65
22 66
22 67
22 68
22 104
22 105
22 106
22 127
22 138
22 154
22 155
22 226
22 242
22 243
22 259
22 275
22 276
23 24
23 65
23 66
23 67
23 68
23 104
23 105
23 106
23 127
23 171
23 182
23 226
23 242
23 243
23 297
23 298
23 314
24 65
24 66
24 67
24 68
24 104
24 105
24 106
24 138
24 171
24 198
24 199
24 226
24 259
24 297
24 298
24 330
24 331
25 26
25 27
25 28
25 69
25 70
25 71
25 72
25 107
25 108
25 109
25 128
25 139
25 156
25 157
25 172
25 183
25 200
25 201
25 216
26 27
26 28
26 69
26 70
26 71
26 72
26 107
26 108
26 109
26 128
26 139
26 156
26 157
26 227
26 244
26 245
26 260
26 277
26 278
27 28
27 69
27 70
27 71
27 72
27 107
27 108
27 109
27 128
27 172
27 183
27 227
27 244
27 245
27 299
27 300
27 315
28 69
28 70
28 71
28 72
28 107
28 108
28 109
28 139
28 172
28 200
28 201
28 227
28 260
28 299
28 300
28 332
28 333
29 30
29 31
29 32
29 73
29 74
29 75
29 76
29 110
29 111
29 112
29 129
29 140
29 158
29 159
29 173
29 184
29 202
29 203
29 217
30 31
30 32
30 73
30 74
30 75
30 76
30 110
30 111
30 112
30 129
30 140
30 158
30 159
30 228
30 246
30 247
30 261
30 279
30 280
31 32
31 73
31 74
31 75
31 76
31 110
31 111
31 112
31 129
31 173
31 184
31 228
31 246
31 247
31 301
31 302
31 316
32 73
32 74
32 75
32 76
32 110
32 111
32 112
32 140
32 173
32 202
32 203
32 228
32 261
32 301
32 302
32 334
32 335
33 34
33 35
33 36
33 77
33 78
33 79
33 80
33 113
33 114
33 115
33 130
33 141
33 160
33 161
33 174
33 185
33 204
33 205
33 218
34 35
34 36
34 77
34 78
34 79
34 80
34 113
34 114
34 115
34 130
34 141
34 160
34 161
34 229
34 248
34 249
34 262
34 281
34 282
35 36
35 77
35 78
35 79
35 80
35 113
35 114
35 115
35 130
35 174
35 185
35 229
35 248
35 249
35 303
35 304
35 317
36 77
36 78
36 79
36 80
36 113
36 114
36 115
36 141
36 174
36 204
36 205
36 229
36 262
36 303
36 304
36 336
36 337
37 38
37 39
37 40
37 81
37 82
37 83
37 84
37 116
37 117
37 118
37 131
37 142
37 162
37 163
37 175
37 186
37 206
37 207
37 219
38 39
38 40
38 81
38 82
38 83
38 84
38 116
38 117
38 118
38 131
38 142
38 162
38 163
38 230
38 250
38 251
38 263
38 283
38 284
39 40
39 81
39 82
39 83
39 84
39 116
39 117
39 118
39 131
39 175
39 186
39 230
39 250
39 251
39 305
39 306
39 318
40 81
40 82
40 83
40 84
40 116
40 117
40 118
40 142
40 175
40 206
40 207
40 230
40 263
40 305
40 306
40 338
40 339
41 42
41 43
41 44
41 85
41 86
41 87
41 88
41 119
41 120
41 121
41 132
41 143
41 164
41 165
41 176
41 187
41 208
41 209
41 220
42 43
42 44
42 85
42 86
42 87
42 88
42 119
42 120
42 121
42 132
42 143
42 164
42 165
42 231
42 252
42 253
42 264
42 285
42 286
43 44
43 85
43 86
43 87
43 88
43 119
43 120
43 121
43 132
43 176
43 187
43 231
43 252
43 253
43 307
43 308
43 319
44 85
44 86
44 87
44 88
44 119
44 120
44 121
44 143
44 176
44 208
44 209
44 231
44 264
44 307
44 308
44 340
44 341
45 46
45 47
45 48
45 89
45 90
45 91
45 221
45 232
45 233
45 254
45 265
45 266
45 287
45 288
45 309
45 320
45 321
45 342
45 343
46 47
46 48
46 89
46 90
46 91
46 166
46 177
46 188
46 189
46 210
46 287
46 288
46 309
46 320
46 321
46 342
46 343
47 48
47 89
47 90
47 91
47 133
47 144
47 145
47 188
47 189
47 210
47 254
47 265
47 266
47 320
47 321
47 342
47 343
48 89
48 90
48 91
48 122
48 144
48 145
48 177
48 210
48 232
48 233
48 265
48 266
48 309
48 342
48 343
49 50
49 51
49 52
49 92
49 93
49 94
49 222
49 234
49 235
49 255
49 267
49 268
49 289
49 290
49 310
49 322
49 323
49 344
49 345
50 51
50 52
50 92
50 93
50 94
50 167
50 178
50 190
50 191
50 211
50 289
50 290
50 310
50 322
50 323
50 344
50 345
51 52
51 92
51 93
51 94
51 134
51 146
51 147
51 190
51 191
51 211
51 255
51 267
51 268
51 322
51 323
51 344
51 345
52 92
52 93
52 94
52 123
52 146
52 147
52 178
52 211
52 234
52 235
52 267
52 268
52 310
52 344
52 345
53 54
53 55
53 56
53 95
53 96
53 97
53 223
53 236
53 237
53 256
53 269
53 270
53 291
53 292
53 311
53 324
53 325
53 346
53 347
54 55
54 56
54 95
54 96
54 97
54 168
54 179
54 192
54 193
54 212
54 291
54 292
54 311
54 324
54 325
54 346
54 347
55 56
55 95
55 96
55 97
55 135
55 148
55 149
55 192
55 193
55 212
55 256
55 269
55 270
55 324
55 325
55 346
55 347
56 95
56 96
56 97
56 124
56 148
56 149
56 179
56 212
56 236
56 237
56 269
56 270
56 311
56 346
56 347
57 58
57 59
57 60
57 98
57 99
57 100
57 224
57 238
57 239
57 257
57 271
57 272
57 293
57 294
57 312
57 326
57 327
57 348
57 349
58 59
58 60
58 98
58 99
58 100
58 169
58 180
58 194
58 195
58 213
58 293
58 294
58 312
58 326
58 327
58 348
58 349
59 60
59 98
59 99
59 100
59 136
59 150
59 151
59 194
59 195
59 213
59 257
59 271
59 272
59 326
59 327
59 348
59 349
60 98
60 99
60 100
60 125
60 150
60 151
60 180
60 213
60 238
60 239
60 271
60 272
60 312
60 348
60 349
61 62
61 63
61 64
61 101
61 102
61 103
61 225
61 240
61 241
61 258
61 273
61 274
61 295
61 296
61 313
61 328
61 329
61 350
61 351
62 63
62 64
62 101
62 102
62 103
62 170
62 181
62 196
62 197
62 214
62 295
62 296
62 313
62 328
62 329
62 350
62 351
63 64
63 101
63 102
63 103
63 137
63 152
63 153
63 196
63 197
63 214
63 258
63 273
63 274
63 328
63 329
63 350
63 351
64 101
64 102
64 103
64 126
64 152
64 153
64 181
64 214
64 240
64 241
64 273
64 274
64 313
64 350
64 351
65 66
65 67
65 68
65 104
65 105
65 106
65 226
65 242
65 243
65 259
65 275
65 276
65 297
65 298
65 314
65 330
65 331
65 352
65 353
66 67
66 68
66 104
66 105
66 106
66 171
66 182
66 198
66 199
66 215
66 297
66 298
66 314
66 330
66 331
66 352
66 353
67 68
67 104
67 105
67 106
67 138
67 154
67 155
67 198
67 199
67 215
67 259
67 275
67 276
67 330
67 331
67 352
67 353
68 104
68 105
68 106
68 127
68 154
68 155
68 182
68 215
68 242
68 243
68 275
68 276
68 314
68 352
68 353
69 70
69 71
69 72
69 107
69 108
69 109
69 227
69 244
69 245
69 260
69 277
69 278
69 299
69 300
69 315
69 332
69 333
69 354
69 355
70 71
70 72
70 107
70 108
70 109
70 172
70 183
70 200
70 201
70 216
70 299
70 300
70 315
70 332
70 333
70 354
70 355
71 72
71 107
71 108
71 109
71 139
71 156
71 157
71 200
71 201
71 216
71 260
71 277
71 278
71 332
71 333
71 354
71 355
72 107
72 108
72 109
72 128
72 156
72 157
72 183
72 216
72 244
72 245
72 277
72 278
72 315
72 354
72 355
73 74
73 75
73 76
73 110
73 111
73 112
73 228
73 246
73 247
73 261
73 279
73 280
73 301
73 302
73 316
73 334
73 335
73 356
73 357
74 75
74 76
74 110
74 111
74 112
74 173
74 184
74 202
74 203
74 217
74 301
74 302
74 316
74 334
74 335
74 356
74 357
75 76
75 110
75 111
75 112
75 140
75 158
75 159
75 202
75 203
75 217
75 261
75 279
75 280
75 334
75 335
75 356
75 357
76 110
76 111
76 112
76 129
76 158
76 159
76 184
76 217
76 246
76 247
76 279
76 280
76 316
76 356
76 357
77 78
77 79
77 80
77 113
77 114
77 115
77 229
77 248
77 249
77 262
77 281
77 282
77 303
77 304
77 317
77 336
77 337
77 358
77 359
78 79
78 80
78 113
78 114
78 115
78 174
78 185
78 204
78 205
78 218
78 303
78 304
78 317
78 336
78 337
78 358
78 359
79 80
79 113
79 114
79 115
79 141
79 160
79 161
79 204
79 205
79 218
79 262
79 281
79 282
79 336
79 337
79 358
79 359
80 113
80 114
80 115
80 130
80 160
80 161
80 185
80 218
80 248
80 249
80 281
80 282
80 317
80 358
80 359
81 82
81 83
81 84
81 116
81 117
81 118
81 230
81 250
81 251
81 263
81 283
81 284
81 305
81 306
81 318
81 338
81 339
81 360
81 361
82 83
82 84
82 116
82 117
82 118
82 175
82 186
82 206
82 207
82 219
82 305
82 306
82 318
82 338
82 339
82 360
82 361
83 84
83 116
83 117
83 118
83 142
83 162
83 163
83 206
83 207
83 219
83 263
83 283
83 284
83 338
83 339
83 360
83 361
84 116
84 117
84 118
84 131
84 162
84 163
84 186
84 219
84 250
84 251
84 283
84 284
84 318
84 360
84 361
85 86
85 87
85 88
85 119
85 120
85 121
85 231
85 252
85 253
85 264
85 285
85 286
85 307
85 308
85 319
85 340
85 341
85 362
85 363
86 87
86 88
86 119
86 120
86 121
86 176
86 187
86 208
86 209
86 220
86 307
86 308
86 319
86 340
86 341
86 362
86 363
87 88
87 119
87 120
87 121
87 143
87 164
87 165
87 208
87 209
87 220
87 264
87 285
87 286
87 340
87 341
87 362
87 363
88 119
88 120
88 121
88 132
88 164
88 165
88 187
88 220
88 252
88 253
88 285
88 286
88 319
88 362
88 363
89 210
89 254
89 265
89 309
89 320
89 342
90 133
90 144
90 177
90 188
90 221
90 232
90 287
90 343
91 122
91 145
91 166
91 189
91 233
91 266
91 288
91 321
92 211
92 255
92 267
92 310
92 322
92 344
93 134
93 146
93 178
93 190
93 222
93 234
93 289
93 345
94 123
94 147
94 167
94 191
94 235
94 268
94 290
94 323
95 212
95 256
95 269
95 311
95 324
95 346
96 135
96 148
96 179
96 192
96 223
96 236
96 291
96 347
97 124
97 149
97 168
97 193
97 237
97 270
97 292
97 325
98 213
98 257
98 271
98 312
98 326
98 348
99 136
99 150
99 180
99 194
99 224
99 238
99 293
99 349
100 125
100 151
100 169
100 195
100 239
100 272
100 294
100 327
101 214
101 258
101 273
101 313
101 328
101 350
102 137
102 152
102 181
102 196
102 225
102 240
102 295
102 351
103 126
103 153
103 170
103 197
103 241
103 274
103 296
103 329
104 215
104 259
104 275
104 314
104 330
104 352
105 138
105 154
105 182
105 198
105 226
105 242
105 297
105 353
106 127
106 155
106 171
106 199
106 243
106 276
106 298
106 331
107 216
107 260
107 277
107 315
107 332
107 354
108 139
108 156
108 183
108 200
108 227
108 244
108 299
108 355
109 128
109 157
109 172
109 201
109 245
109 278
109 300
109 333
110 217
110 261
110 279
110 316
110 334
110 356
111 140
111 158
111 184
111 202
111 228
111 246
111 301
111 357
112 129
112 159
112 173
112 203
112 247
112 280
112 302
112 335
113 218
113 262
113 281
113 317
113 336
113 358
114 141
114 160
114 185
114 204
114 229
114 248
114 303
114 359
115 130
115 161
115 174
115 205
115 249
115 282
115 304
115 337
116 219
116 263
116 283
116 318
116 338
116 360
117 142
117 162
117 186
117 206
117 230
117 250
117 305
117 361
118 131
118 163
118 175
118 207
118 251
118 284
118 306
118 339
119 220
119 264
119 285
119 319
119 340
119 362
120 143
120 164
120 187
120 208
120 231
120 252
120 307
120 363
121 132
121 165
121 176
121 209
121 253
121 286
121 308
121 341
122 123
122 124
122 125
122 126
122 127
122 128
122 129
122 130
122 131
122 132
123 124
123 125
123 126
123 127
123 128
123 129
123 130
123 131
123 132
124 125
124 126
124 127
124 128
124 129
124 130
124 131
124 132
125 126
125 127
125 128
125 129
125 130
125 131
125 132
126 127
126 128
126 129
126 130
126 131
126 132
127 128
127 129
127 130
127 131
127 132
128 129
128 130
128 131
128 132
129 130
129 131
129 132
130 131
130 132
131 132
133 134
133 135
133 136
133 137
133 138
133 139
133 140
133 141
133 142
133 143
134 135
134 136
134 137
134 138
134 139
134 140
134 141
134 142
134 143
135 136
135 137
135 138
135 139
135 140
135 141
135 142
135 143
136 137
136 138
136 139
136 140
136 141
136 142
136 143
137 138
137 139
137 140
137 141
137 142
137 143
138 139
138 140
138 141
138 142
138 143
139 140
139 141
139 142
139 143
140 141
140 142
140 143
141 142
141 143
142 143
144 146
144 148
144 150
144 152
144 154
144 156
144 158
144 160
144 162
144 164
145 147
145 149
145 151
145 153
145 155
145 157
145 159
145 161
145 163
145 165
146 148
146 150
146 152
146 154
146 156
146 158
146 160
146 162
146 164
147 149
147 151
147 153
147 155
147 157
147 159
147 161
147 163
147 165
148 150
148 152
148 154
148 156
148 158
148 160
148 162
148 164
149 151
149 153
149 155
149 157
149 159
149 161
149 163
149 165
150 152
150 154
150 156
150 158
150 160
150 162
150 164
151 153
151 155
151 157
151 159
151 161
151 163
151 165
152 154
152 156
152 158
152 160
152 162
152 164
153 155
153 157
153 159
153 161
153 163
153 165
154 156
154 158
154 160
154 162
154 164
155 157
155 159
155 161
155 163
155 165
156 158
156 160
156 162
156 164
157 159
157 161
157 163
157 165
158 160
158 162
158 164
159 161
159 163
159 165
160 162
160 164
161 163
161 165
162 164
163 165
166 167
166 168
166 169
166 170
166 171
166 172
166 173
166 174
166 175
166 176
167 168
167 169
167 170
167 171
167 172
167 173
167 174
167 175
167 176
168 169
168 170
168 171
168 172
168 173
168 174
168 175
168 176
169 170
169 171
169 172
169 173
169 174
169 175
169 176
170 171
170 172
170 173
170 174
170 175
170 176
171 172
171 173
171 174
171 175
171 176
172 173
172 174
172 175
172 176
173 174
173 175
173 176
174 175
174 176
175 176
177 178
177 179
177 180
177 181
177 182
177 183
177 184
177 185
177 186
177 187
178 179
178 180
178 181
178 182
178 183
178 184
178 185
178 186
178 187
179 180
179 181
179 182
179 183
179 184
179 185
179 186
179 187
180 181
180 182
180 183
180 184
180 185
180 186
180 187
181 182
181 183
181 184
181 185
181 186
181 187
182 183
182 184
182 185
182 186
182 187
183 184
183 185
183 186
183 187
184 185
184 186
184 187
185 186
185 187
186 187
188 190
188 192
188 194
188 196
188 198
188 200
188 202
188 204
188 206
188 208
189 191
189 193
189 195
189 197
189 199
189 201
189 203
189 205
189 207
189 209
190 192
190 194
190 196
190 198
190 200
190 202
190 204
190 206
190 208
191 193
191 195
191 197
191 199
191 201
191 203
191 205
191 207
191 209
192 194
192 196
192 198
192 200
192 202
192 204
192 206
192 208
193 195
193 197
193 199
193 201
193 203
193 205
193 207
193 209
194 196
194 198
194 200
194 202
194 204
194 206
194 208
195 197
195 199
195 201
195 203
195 205
195 207
195 209
196 198
196 200
196 202
196 204
196 206
196 208
197 199
197 201
197 203
197 205
197 207
197 209
198 200
198 202
198 204
198 206
198 208
199 201
199 203
199 205
199 207
199 209
200 202
200 204
200 206
200 208
201 203
201 205
201 207
201 209
202 204
202 206
202 208
203 205
203 207
203 209
204 206
204 208
205 207
205 209
206 208
207 209
210 211
210 212
210 213
210 214
210 215
210 216
210 217
210 218
210 219
210 220
211 212
211 213
211 214
211 215
211 216
211 217
211 218
211 219
211 220
212 213
212 214
212 215
212 216
212 217
212 218
212 219
212 220
213 214
213 215
213 216
213 217
213 218
213 219
213 220
214 215
214 216
214 217
214 218
214 219
214 220
215 216
215 217
215 218
215 219
215 220
216 217
216 218
216 219
216 220
217 218
217 219
217 220
218 219
218 220
219 220
221 222
221 223
221 224
221 225
221 226
221 227
221 228
221 229
221 230
221 231
222 223
222 224
222 225
222 226
222 227
222 228
222 229
222 230
222 231
223 224
223 225
223 226
223 227
223 228
223 229
223 230
223 231
224 225
224 226
224 227
224 228
224 229
224 230
224 231
225 226
225 227
225 228
225 229
225 230
225 231
226 227
226 228
226 229
226 230
226 231
227 228
227 229
227 230
227 231
228 229
228 230
228 231
229 230
229 231
230 231
232 234
232 236
232 238
232 240
232 242
232 244
232 246
232 248
232 250
232 252
233 235
233 237
233 239
233 241
233 243
233 245
233 247
233 249
233 251
233 253
234 236
234 238
234 240
234 242
234 244
234 246
234 248
234 250
234 252
235 237
235 239
235 241
235 243
235 245
235 247
235 249
235 251
235 253
236 238
236 240
236 242
236 244
236 246
236 248
236 250
236 252
237 239
237 241
237 243
237 245
237 247
237 249
237 251
237 253
238 240
238 242
238 244
238 246
238 248
238 250
238 252
239 241
239 243
239 245
239 247
239 249
239 251
239 253
240 242
240 244
240 246
240 248
240 250
240 252
241 243
241 245
241 247
241 249
241 251
241 253
242 244
242 246
242 248
242 250
242 252
243 245
243 247
243 249
243 251
243 253
244 246
244 248
244 250
244 252
245 247
245 249
245 251
245 253
246 248
246 250
246 252
247 249
247 251
247 253
248 250
248 252
249 251
249 253
250 252
251 253
254 255
254 256
254 257
254 258
254 259
254 260
254 261
254 262
254 263
254 264
255 256
255 257
255 258
255 259
255 260
255 261
255 262
255 263
255 264
256 257
256 258
256 259
256 260
256 261
256 262
256 263
256 264
257 258
257 259
257 260
257 261
257 262
257 263
257 264
258 259
258 260
258 261
258 262
258 263
258 264
259 260
259 261
259 262
259 263
259 264
260 261
260 262
260 263
260 264
261 262
261 263
261 264
262 263
262 264
263 264
265 267
265 269
265 271
265 273
265 275
265 277
265 279
265 281
265 283
265 285
266 268
266 270
266 272
266 274
266 276
266 278
266 280
266 282
266 284
266 286
267 269
267 271
267 273
267 275
267 277
267 279
267 281
267 283
267 285
268 270
268 272
268 274
268 276
268 278
268 280
268 282
268 284
268 286
269 271
269 273
269 275
269 277
269 279
269 281
269 283
269 285
270 272
270 274
270 276
270 278
270 280
270 282
270 284
270 286
271 273
271 275
271 277
271 279
271 281
271 283
271 285
272 274
272 276
272 278
272 280
272 282
272 284
272 286
273 275
273 277
273 279
273 281
273 283
273 285
274 276
274 278
274 280
274 282
274 284
274 286
275 277
275 279
275 281
275 283
275 285
276 278
276 280
276 282
276 284
276 286
277 279
277 281
277 283
277 285
278 280
278 282
278 284
278 286
279 281
279 283
279 285
280 282
280 284
280 286
281 283
281 285
282 284
282 286
283 285
284 286
287 289
287 291
287 293
287 295
287 297
287 299
287 301
287 303
287 305
287 307
288 290
288 292
288 294
288 296
288 298
288 300
288 302
288 304
288 306
288 308
289 291
289 293
289 295
289 297
289 299
289 301
289 303
289 305
289 307
290 292
290 294
290 296
290 298
290 300
290 302
290 304
290 306
290 308
291 293
291 295
291 297
291 299
291 301
291 303
291 305
291 307
292 294
292 296
292 298
292 300
292 302
292 304
292 306
292 308
293 295
293 297
293 299
293 301
293 303
293 305
293 307
294 296
294 298
294 300
294 302
294 304
294 306
294 308
295 297
295 299
295 301
295 303
295 305
295 307
296 298
296 300
296 302
296 304
296 306
296 308
297 299
297 301
297 303
297 305
297 307
298 300
298 302
298 304
298 306
298 308
299 301
299 303
299 305
299 307
300 302
300 304
300 306
300 308
301 303
301 305
301 307
302 304
302 306
302 308
303 305
303 307
304 306
304 308
305 307
306 308
309 310
309 311
309 312
309 313
309 314
309 315
309 316
309 317
309 318
309 319
310 311
310 312
310 313
310 314
310 315
310 316
310 317
310 318
310 319
311 312
311 313
311 314
311 315
311 316
311 317
311 318
311 319
312 313
312 314
312 315
312 316
312 317
312 318
312 319
313 314
313 315
313 316
313 317
313 318
313 319
314 315
314 316
314 317
314 318
314 319
315 316
315 317
315 318
315 319
316 317
316 318
316 319
317 318
317 319
318 319
320 322
320 324
320 326
320 328
320 330
320 332
320 334
320 336
320 338
320 340
321 323
321 325
321 327
321 329
321 331
321 333
321 335
321 337
321 339
321 341
322 324
322 326
322 328
322 330
322 332
322 334
322 336
322 338
322 340
323 325
323 327
323 329
323 331
323 333
323 335
323 337
323 339
323 341
324 326
324 328
324 330
324 332
324 334
324 336
324 338
324 340
325 327
325 329
325 331
325 333
325 335
325 337
325 339
325 341
326 328
326 330
326 332
326 334
326 336
326 338
326 340
327 329
327 331
327 333
327 335
327 337
327 339
327 341
328 330
328 332
328 334
328 336
328 338
328 340
329 331
329 333
329 335
329 337
329 339
329 341
330 332
330 334
330 336
330 338
330 340
331 333
331 335
331 337
331 339
331 341
332 334
332 336
332 338
332 340
333 335
333 337
333 339
333 341
334 336
334 338
334 340
335 337
335 339
335 341
336 338
336 340
337 339
337 341
338 340
339 341
342 344
342 346
342 348
342 350
342 352
342 354
342 356
342 358
342 360
342 362
343 345
343 347
343 349
343 351
343 353
343 355
343 357
343 359
343 361
343 363
344 346
344 348
344 350
344 352
344 354
344 356
344 358
344 360
344 362
345 347
345 349
345 351
345 353
345 355
345 357
345 359
345 361
345 363
346 348
346 350
346 352
346 354
346 356
346 358
346 360
346 362
347 349
347 351
347 353
347 355
347 357
347 359
347 361
347 363
348 350
348 352
348 354
348 356
348 358
348 360
348 362
349 351
349 353
349 355
349 357
349 359
349 361
349 363
350 352
350 354
350 356
350 358
350 360
350 362
351 353
351 355
351 357
351 359
351 361
351 363
352 354
352 356
352 358
352 360
352 362
353 355
353 357
353 359
353 361
353 363
354 356
354 358
354 360
354 362
355 357
355 359
355 361
355 363
356 358
356 360
356 362
357 359
357 361
357 363
358 360
358 362
359 361
359 363
360 362
361 363
